p cnf 539 2989
-1 -9 0
-1 -10 0
-1 -11 0
-1 -12 0
-1 -13 0
-1 -14 0
-2 -8 0
-2 -10 0
-2 -11 0
-2 -12 0
-2 -13 0
-2 -14 0
-3 -8 0
-3 -9 0
-3 -11 0
-3 -12 0
-3 -13 0
-3 -14 0
-4 -8 0
-4 -9 0
-4 -10 0
-4 -12 0
-4 -13 0
-4 -14 0
-5 -8 0
-5 -9 0
-5 -10 0
-5 -11 0
-5 -13 0
-5 -14 0
-6 -8 0
-6 -9 0
-6 -10 0
-6 -11 0
-6 -12 0
-6 -14 0
-7 -8 0
-7 -9 0
-7 -10 0
-7 -11 0
-7 -12 0
-7 -13 0
-1 -107 0
-1 -108 0
-1 -109 0
-1 -110 0
-1 -111 0
-1 -112 0
-2 -106 0
-2 -108 0
-2 -109 0
-2 -110 0
-2 -111 0
-2 -112 0
-3 -106 0
-3 -107 0
-3 -109 0
-3 -110 0
-3 -111 0
-3 -112 0
-4 -106 0
-4 -107 0
-4 -108 0
-4 -110 0
-4 -111 0
-4 -112 0
-5 -106 0
-5 -107 0
-5 -108 0
-5 -109 0
-5 -111 0
-5 -112 0
-6 -106 0
-6 -107 0
-6 -108 0
-6 -109 0
-6 -110 0
-6 -112 0
-7 -106 0
-7 -107 0
-7 -108 0
-7 -109 0
-7 -110 0
-7 -111 0
-8 -23 0
-8 -24 0
-8 -25 0
-8 -26 0
-8 -27 0
-8 -28 0
-9 -22 0
-9 -24 0
-9 -25 0
-9 -26 0
-9 -27 0
-9 -28 0
-10 -22 0
-10 -23 0
-10 -25 0
-10 -26 0
-10 -27 0
-10 -28 0
-11 -22 0
-11 -23 0
-11 -24 0
-11 -26 0
-11 -27 0
-11 -28 0
-12 -22 0
-12 -23 0
-12 -24 0
-12 -25 0
-12 -27 0
-12 -28 0
-13 -22 0
-13 -23 0
-13 -24 0
-13 -25 0
-13 -26 0
-13 -28 0
-14 -22 0
-14 -23 0
-14 -24 0
-14 -25 0
-14 -26 0
-14 -27 0
-8 -37 0
-8 -38 0
-8 -39 0
-8 -40 0
-8 -41 0
-8 -42 0
-9 -36 0
-9 -38 0
-9 -39 0
-9 -40 0
-9 -41 0
-9 -42 0
-10 -36 0
-10 -37 0
-10 -39 0
-10 -40 0
-10 -41 0
-10 -42 0
-11 -36 0
-11 -37 0
-11 -38 0
-11 -40 0
-11 -41 0
-11 -42 0
-12 -36 0
-12 -37 0
-12 -38 0
-12 -39 0
-12 -41 0
-12 -42 0
-13 -36 0
-13 -37 0
-13 -38 0
-13 -39 0
-13 -40 0
-13 -42 0
-14 -36 0
-14 -37 0
-14 -38 0
-14 -39 0
-14 -40 0
-14 -41 0
-8 -51 0
-8 -52 0
-8 -53 0
-8 -54 0
-8 -55 0
-8 -56 0
-9 -50 0
-9 -52 0
-9 -53 0
-9 -54 0
-9 -55 0
-9 -56 0
-10 -50 0
-10 -51 0
-10 -53 0
-10 -54 0
-10 -55 0
-10 -56 0
-11 -50 0
-11 -51 0
-11 -52 0
-11 -54 0
-11 -55 0
-11 -56 0
-12 -50 0
-12 -51 0
-12 -52 0
-12 -53 0
-12 -55 0
-12 -56 0
-13 -50 0
-13 -51 0
-13 -52 0
-13 -53 0
-13 -54 0
-13 -56 0
-14 -50 0
-14 -51 0
-14 -52 0
-14 -53 0
-14 -54 0
-14 -55 0
-8 -79 0
-8 -80 0
-8 -81 0
-8 -82 0
-8 -83 0
-8 -84 0
-9 -78 0
-9 -80 0
-9 -81 0
-9 -82 0
-9 -83 0
-9 -84 0
-10 -78 0
-10 -79 0
-10 -81 0
-10 -82 0
-10 -83 0
-10 -84 0
-11 -78 0
-11 -79 0
-11 -80 0
-11 -82 0
-11 -83 0
-11 -84 0
-12 -78 0
-12 -79 0
-12 -80 0
-12 -81 0
-12 -83 0
-12 -84 0
-13 -78 0
-13 -79 0
-13 -80 0
-13 -81 0
-13 -82 0
-13 -84 0
-14 -78 0
-14 -79 0
-14 -80 0
-14 -81 0
-14 -82 0
-14 -83 0
-8 -93 0
-8 -94 0
-8 -95 0
-8 -96 0
-8 -97 0
-8 -98 0
-9 -92 0
-9 -94 0
-9 -95 0
-9 -96 0
-9 -97 0
-9 -98 0
-10 -92 0
-10 -93 0
-10 -95 0
-10 -96 0
-10 -97 0
-10 -98 0
-11 -92 0
-11 -93 0
-11 -94 0
-11 -96 0
-11 -97 0
-11 -98 0
-12 -92 0
-12 -93 0
-12 -94 0
-12 -95 0
-12 -97 0
-12 -98 0
-13 -92 0
-13 -93 0
-13 -94 0
-13 -95 0
-13 -96 0
-13 -98 0
-14 -92 0
-14 -93 0
-14 -94 0
-14 -95 0
-14 -96 0
-14 -97 0
-8 -100 0
-8 -101 0
-8 -102 0
-8 -103 0
-8 -104 0
-8 -105 0
-9 -99 0
-9 -101 0
-9 -102 0
-9 -103 0
-9 -104 0
-9 -105 0
-10 -99 0
-10 -100 0
-10 -102 0
-10 -103 0
-10 -104 0
-10 -105 0
-11 -99 0
-11 -100 0
-11 -101 0
-11 -103 0
-11 -104 0
-11 -105 0
-12 -99 0
-12 -100 0
-12 -101 0
-12 -102 0
-12 -104 0
-12 -105 0
-13 -99 0
-13 -100 0
-13 -101 0
-13 -102 0
-13 -103 0
-13 -105 0
-14 -99 0
-14 -100 0
-14 -101 0
-14 -102 0
-14 -103 0
-14 -104 0
-15 -58 0
-15 -59 0
-15 -60 0
-15 -61 0
-15 -62 0
-15 -63 0
-16 -57 0
-16 -59 0
-16 -60 0
-16 -61 0
-16 -62 0
-16 -63 0
-17 -57 0
-17 -58 0
-17 -60 0
-17 -61 0
-17 -62 0
-17 -63 0
-18 -57 0
-18 -58 0
-18 -59 0
-18 -61 0
-18 -62 0
-18 -63 0
-19 -57 0
-19 -58 0
-19 -59 0
-19 -60 0
-19 -62 0
-19 -63 0
-20 -57 0
-20 -58 0
-20 -59 0
-20 -60 0
-20 -61 0
-20 -63 0
-21 -57 0
-21 -58 0
-21 -59 0
-21 -60 0
-21 -61 0
-21 -62 0
-22 -51 0
-22 -52 0
-22 -53 0
-22 -54 0
-22 -55 0
-22 -56 0
-23 -50 0
-23 -52 0
-23 -53 0
-23 -54 0
-23 -55 0
-23 -56 0
-24 -50 0
-24 -51 0
-24 -53 0
-24 -54 0
-24 -55 0
-24 -56 0
-25 -50 0
-25 -51 0
-25 -52 0
-25 -54 0
-25 -55 0
-25 -56 0
-26 -50 0
-26 -51 0
-26 -52 0
-26 -53 0
-26 -55 0
-26 -56 0
-27 -50 0
-27 -51 0
-27 -52 0
-27 -53 0
-27 -54 0
-27 -56 0
-28 -50 0
-28 -51 0
-28 -52 0
-28 -53 0
-28 -54 0
-28 -55 0
-22 -72 0
-22 -73 0
-22 -74 0
-22 -75 0
-22 -76 0
-22 -77 0
-23 -71 0
-23 -73 0
-23 -74 0
-23 -75 0
-23 -76 0
-23 -77 0
-24 -71 0
-24 -72 0
-24 -74 0
-24 -75 0
-24 -76 0
-24 -77 0
-25 -71 0
-25 -72 0
-25 -73 0
-25 -75 0
-25 -76 0
-25 -77 0
-26 -71 0
-26 -72 0
-26 -73 0
-26 -74 0
-26 -76 0
-26 -77 0
-27 -71 0
-27 -72 0
-27 -73 0
-27 -74 0
-27 -75 0
-27 -77 0
-28 -71 0
-28 -72 0
-28 -73 0
-28 -74 0
-28 -75 0
-28 -76 0
-22 -79 0
-22 -80 0
-22 -81 0
-22 -82 0
-22 -83 0
-22 -84 0
-23 -78 0
-23 -80 0
-23 -81 0
-23 -82 0
-23 -83 0
-23 -84 0
-24 -78 0
-24 -79 0
-24 -81 0
-24 -82 0
-24 -83 0
-24 -84 0
-25 -78 0
-25 -79 0
-25 -80 0
-25 -82 0
-25 -83 0
-25 -84 0
-26 -78 0
-26 -79 0
-26 -80 0
-26 -81 0
-26 -83 0
-26 -84 0
-27 -78 0
-27 -79 0
-27 -80 0
-27 -81 0
-27 -82 0
-27 -84 0
-28 -78 0
-28 -79 0
-28 -80 0
-28 -81 0
-28 -82 0
-28 -83 0
-22 -100 0
-22 -101 0
-22 -102 0
-22 -103 0
-22 -104 0
-22 -105 0
-23 -99 0
-23 -101 0
-23 -102 0
-23 -103 0
-23 -104 0
-23 -105 0
-24 -99 0
-24 -100 0
-24 -102 0
-24 -103 0
-24 -104 0
-24 -105 0
-25 -99 0
-25 -100 0
-25 -101 0
-25 -103 0
-25 -104 0
-25 -105 0
-26 -99 0
-26 -100 0
-26 -101 0
-26 -102 0
-26 -104 0
-26 -105 0
-27 -99 0
-27 -100 0
-27 -101 0
-27 -102 0
-27 -103 0
-27 -105 0
-28 -99 0
-28 -100 0
-28 -101 0
-28 -102 0
-28 -103 0
-28 -104 0
-22 -107 0
-22 -108 0
-22 -109 0
-22 -110 0
-22 -111 0
-22 -112 0
-23 -106 0
-23 -108 0
-23 -109 0
-23 -110 0
-23 -111 0
-23 -112 0
-24 -106 0
-24 -107 0
-24 -109 0
-24 -110 0
-24 -111 0
-24 -112 0
-25 -106 0
-25 -107 0
-25 -108 0
-25 -110 0
-25 -111 0
-25 -112 0
-26 -106 0
-26 -107 0
-26 -108 0
-26 -109 0
-26 -111 0
-26 -112 0
-27 -106 0
-27 -107 0
-27 -108 0
-27 -109 0
-27 -110 0
-27 -112 0
-28 -106 0
-28 -107 0
-28 -108 0
-28 -109 0
-28 -110 0
-28 -111 0
-29 -51 0
-29 -52 0
-29 -53 0
-29 -54 0
-29 -55 0
-29 -56 0
-30 -50 0
-30 -52 0
-30 -53 0
-30 -54 0
-30 -55 0
-30 -56 0
-31 -50 0
-31 -51 0
-31 -53 0
-31 -54 0
-31 -55 0
-31 -56 0
-32 -50 0
-32 -51 0
-32 -52 0
-32 -54 0
-32 -55 0
-32 -56 0
-33 -50 0
-33 -51 0
-33 -52 0
-33 -53 0
-33 -55 0
-33 -56 0
-34 -50 0
-34 -51 0
-34 -52 0
-34 -53 0
-34 -54 0
-34 -56 0
-35 -50 0
-35 -51 0
-35 -52 0
-35 -53 0
-35 -54 0
-35 -55 0
-29 -58 0
-29 -59 0
-29 -60 0
-29 -61 0
-29 -62 0
-29 -63 0
-30 -57 0
-30 -59 0
-30 -60 0
-30 -61 0
-30 -62 0
-30 -63 0
-31 -57 0
-31 -58 0
-31 -60 0
-31 -61 0
-31 -62 0
-31 -63 0
-32 -57 0
-32 -58 0
-32 -59 0
-32 -61 0
-32 -62 0
-32 -63 0
-33 -57 0
-33 -58 0
-33 -59 0
-33 -60 0
-33 -62 0
-33 -63 0
-34 -57 0
-34 -58 0
-34 -59 0
-34 -60 0
-34 -61 0
-34 -63 0
-35 -57 0
-35 -58 0
-35 -59 0
-35 -60 0
-35 -61 0
-35 -62 0
-29 -65 0
-29 -66 0
-29 -67 0
-29 -68 0
-29 -69 0
-29 -70 0
-30 -64 0
-30 -66 0
-30 -67 0
-30 -68 0
-30 -69 0
-30 -70 0
-31 -64 0
-31 -65 0
-31 -67 0
-31 -68 0
-31 -69 0
-31 -70 0
-32 -64 0
-32 -65 0
-32 -66 0
-32 -68 0
-32 -69 0
-32 -70 0
-33 -64 0
-33 -65 0
-33 -66 0
-33 -67 0
-33 -69 0
-33 -70 0
-34 -64 0
-34 -65 0
-34 -66 0
-34 -67 0
-34 -68 0
-34 -70 0
-35 -64 0
-35 -65 0
-35 -66 0
-35 -67 0
-35 -68 0
-35 -69 0
-29 -72 0
-29 -73 0
-29 -74 0
-29 -75 0
-29 -76 0
-29 -77 0
-30 -71 0
-30 -73 0
-30 -74 0
-30 -75 0
-30 -76 0
-30 -77 0
-31 -71 0
-31 -72 0
-31 -74 0
-31 -75 0
-31 -76 0
-31 -77 0
-32 -71 0
-32 -72 0
-32 -73 0
-32 -75 0
-32 -76 0
-32 -77 0
-33 -71 0
-33 -72 0
-33 -73 0
-33 -74 0
-33 -76 0
-33 -77 0
-34 -71 0
-34 -72 0
-34 -73 0
-34 -74 0
-34 -75 0
-34 -77 0
-35 -71 0
-35 -72 0
-35 -73 0
-35 -74 0
-35 -75 0
-35 -76 0
-29 -79 0
-29 -80 0
-29 -81 0
-29 -82 0
-29 -83 0
-29 -84 0
-30 -78 0
-30 -80 0
-30 -81 0
-30 -82 0
-30 -83 0
-30 -84 0
-31 -78 0
-31 -79 0
-31 -81 0
-31 -82 0
-31 -83 0
-31 -84 0
-32 -78 0
-32 -79 0
-32 -80 0
-32 -82 0
-32 -83 0
-32 -84 0
-33 -78 0
-33 -79 0
-33 -80 0
-33 -81 0
-33 -83 0
-33 -84 0
-34 -78 0
-34 -79 0
-34 -80 0
-34 -81 0
-34 -82 0
-34 -84 0
-35 -78 0
-35 -79 0
-35 -80 0
-35 -81 0
-35 -82 0
-35 -83 0
-29 -93 0
-29 -94 0
-29 -95 0
-29 -96 0
-29 -97 0
-29 -98 0
-30 -92 0
-30 -94 0
-30 -95 0
-30 -96 0
-30 -97 0
-30 -98 0
-31 -92 0
-31 -93 0
-31 -95 0
-31 -96 0
-31 -97 0
-31 -98 0
-32 -92 0
-32 -93 0
-32 -94 0
-32 -96 0
-32 -97 0
-32 -98 0
-33 -92 0
-33 -93 0
-33 -94 0
-33 -95 0
-33 -97 0
-33 -98 0
-34 -92 0
-34 -93 0
-34 -94 0
-34 -95 0
-34 -96 0
-34 -98 0
-35 -92 0
-35 -93 0
-35 -94 0
-35 -95 0
-35 -96 0
-35 -97 0
-29 -100 0
-29 -101 0
-29 -102 0
-29 -103 0
-29 -104 0
-29 -105 0
-30 -99 0
-30 -101 0
-30 -102 0
-30 -103 0
-30 -104 0
-30 -105 0
-31 -99 0
-31 -100 0
-31 -102 0
-31 -103 0
-31 -104 0
-31 -105 0
-32 -99 0
-32 -100 0
-32 -101 0
-32 -103 0
-32 -104 0
-32 -105 0
-33 -99 0
-33 -100 0
-33 -101 0
-33 -102 0
-33 -104 0
-33 -105 0
-34 -99 0
-34 -100 0
-34 -101 0
-34 -102 0
-34 -103 0
-34 -105 0
-35 -99 0
-35 -100 0
-35 -101 0
-35 -102 0
-35 -103 0
-35 -104 0
-29 -107 0
-29 -108 0
-29 -109 0
-29 -110 0
-29 -111 0
-29 -112 0
-30 -106 0
-30 -108 0
-30 -109 0
-30 -110 0
-30 -111 0
-30 -112 0
-31 -106 0
-31 -107 0
-31 -109 0
-31 -110 0
-31 -111 0
-31 -112 0
-32 -106 0
-32 -107 0
-32 -108 0
-32 -110 0
-32 -111 0
-32 -112 0
-33 -106 0
-33 -107 0
-33 -108 0
-33 -109 0
-33 -111 0
-33 -112 0
-34 -106 0
-34 -107 0
-34 -108 0
-34 -109 0
-34 -110 0
-34 -112 0
-35 -106 0
-35 -107 0
-35 -108 0
-35 -109 0
-35 -110 0
-35 -111 0
-36 -44 0
-36 -45 0
-36 -46 0
-36 -47 0
-36 -48 0
-36 -49 0
-37 -43 0
-37 -45 0
-37 -46 0
-37 -47 0
-37 -48 0
-37 -49 0
-38 -43 0
-38 -44 0
-38 -46 0
-38 -47 0
-38 -48 0
-38 -49 0
-39 -43 0
-39 -44 0
-39 -45 0
-39 -47 0
-39 -48 0
-39 -49 0
-40 -43 0
-40 -44 0
-40 -45 0
-40 -46 0
-40 -48 0
-40 -49 0
-41 -43 0
-41 -44 0
-41 -45 0
-41 -46 0
-41 -47 0
-41 -49 0
-42 -43 0
-42 -44 0
-42 -45 0
-42 -46 0
-42 -47 0
-42 -48 0
-36 -65 0
-36 -66 0
-36 -67 0
-36 -68 0
-36 -69 0
-36 -70 0
-37 -64 0
-37 -66 0
-37 -67 0
-37 -68 0
-37 -69 0
-37 -70 0
-38 -64 0
-38 -65 0
-38 -67 0
-38 -68 0
-38 -69 0
-38 -70 0
-39 -64 0
-39 -65 0
-39 -66 0
-39 -68 0
-39 -69 0
-39 -70 0
-40 -64 0
-40 -65 0
-40 -66 0
-40 -67 0
-40 -69 0
-40 -70 0
-41 -64 0
-41 -65 0
-41 -66 0
-41 -67 0
-41 -68 0
-41 -70 0
-42 -64 0
-42 -65 0
-42 -66 0
-42 -67 0
-42 -68 0
-42 -69 0
-36 -100 0
-36 -101 0
-36 -102 0
-36 -103 0
-36 -104 0
-36 -105 0
-37 -99 0
-37 -101 0
-37 -102 0
-37 -103 0
-37 -104 0
-37 -105 0
-38 -99 0
-38 -100 0
-38 -102 0
-38 -103 0
-38 -104 0
-38 -105 0
-39 -99 0
-39 -100 0
-39 -101 0
-39 -103 0
-39 -104 0
-39 -105 0
-40 -99 0
-40 -100 0
-40 -101 0
-40 -102 0
-40 -104 0
-40 -105 0
-41 -99 0
-41 -100 0
-41 -101 0
-41 -102 0
-41 -103 0
-41 -105 0
-42 -99 0
-42 -100 0
-42 -101 0
-42 -102 0
-42 -103 0
-42 -104 0
-43 -79 0
-43 -80 0
-43 -81 0
-43 -82 0
-43 -83 0
-43 -84 0
-44 -78 0
-44 -80 0
-44 -81 0
-44 -82 0
-44 -83 0
-44 -84 0
-45 -78 0
-45 -79 0
-45 -81 0
-45 -82 0
-45 -83 0
-45 -84 0
-46 -78 0
-46 -79 0
-46 -80 0
-46 -82 0
-46 -83 0
-46 -84 0
-47 -78 0
-47 -79 0
-47 -80 0
-47 -81 0
-47 -83 0
-47 -84 0
-48 -78 0
-48 -79 0
-48 -80 0
-48 -81 0
-48 -82 0
-48 -84 0
-49 -78 0
-49 -79 0
-49 -80 0
-49 -81 0
-49 -82 0
-49 -83 0
-43 -86 0
-43 -87 0
-43 -88 0
-43 -89 0
-43 -90 0
-43 -91 0
-44 -85 0
-44 -87 0
-44 -88 0
-44 -89 0
-44 -90 0
-44 -91 0
-45 -85 0
-45 -86 0
-45 -88 0
-45 -89 0
-45 -90 0
-45 -91 0
-46 -85 0
-46 -86 0
-46 -87 0
-46 -89 0
-46 -90 0
-46 -91 0
-47 -85 0
-47 -86 0
-47 -87 0
-47 -88 0
-47 -90 0
-47 -91 0
-48 -85 0
-48 -86 0
-48 -87 0
-48 -88 0
-48 -89 0
-48 -91 0
-49 -85 0
-49 -86 0
-49 -87 0
-49 -88 0
-49 -89 0
-49 -90 0
-43 -100 0
-43 -101 0
-43 -102 0
-43 -103 0
-43 -104 0
-43 -105 0
-44 -99 0
-44 -101 0
-44 -102 0
-44 -103 0
-44 -104 0
-44 -105 0
-45 -99 0
-45 -100 0
-45 -102 0
-45 -103 0
-45 -104 0
-45 -105 0
-46 -99 0
-46 -100 0
-46 -101 0
-46 -103 0
-46 -104 0
-46 -105 0
-47 -99 0
-47 -100 0
-47 -101 0
-47 -102 0
-47 -104 0
-47 -105 0
-48 -99 0
-48 -100 0
-48 -101 0
-48 -102 0
-48 -103 0
-48 -105 0
-49 -99 0
-49 -100 0
-49 -101 0
-49 -102 0
-49 -103 0
-49 -104 0
-50 -93 0
-50 -94 0
-50 -95 0
-50 -96 0
-50 -97 0
-50 -98 0
-51 -92 0
-51 -94 0
-51 -95 0
-51 -96 0
-51 -97 0
-51 -98 0
-52 -92 0
-52 -93 0
-52 -95 0
-52 -96 0
-52 -97 0
-52 -98 0
-53 -92 0
-53 -93 0
-53 -94 0
-53 -96 0
-53 -97 0
-53 -98 0
-54 -92 0
-54 -93 0
-54 -94 0
-54 -95 0
-54 -97 0
-54 -98 0
-55 -92 0
-55 -93 0
-55 -94 0
-55 -95 0
-55 -96 0
-55 -98 0
-56 -92 0
-56 -93 0
-56 -94 0
-56 -95 0
-56 -96 0
-56 -97 0
-50 -100 0
-50 -101 0
-50 -102 0
-50 -103 0
-50 -104 0
-50 -105 0
-51 -99 0
-51 -101 0
-51 -102 0
-51 -103 0
-51 -104 0
-51 -105 0
-52 -99 0
-52 -100 0
-52 -102 0
-52 -103 0
-52 -104 0
-52 -105 0
-53 -99 0
-53 -100 0
-53 -101 0
-53 -103 0
-53 -104 0
-53 -105 0
-54 -99 0
-54 -100 0
-54 -101 0
-54 -102 0
-54 -104 0
-54 -105 0
-55 -99 0
-55 -100 0
-55 -101 0
-55 -102 0
-55 -103 0
-55 -105 0
-56 -99 0
-56 -100 0
-56 -101 0
-56 -102 0
-56 -103 0
-56 -104 0
-57 -79 0
-57 -80 0
-57 -81 0
-57 -82 0
-57 -83 0
-57 -84 0
-58 -78 0
-58 -80 0
-58 -81 0
-58 -82 0
-58 -83 0
-58 -84 0
-59 -78 0
-59 -79 0
-59 -81 0
-59 -82 0
-59 -83 0
-59 -84 0
-60 -78 0
-60 -79 0
-60 -80 0
-60 -82 0
-60 -83 0
-60 -84 0
-61 -78 0
-61 -79 0
-61 -80 0
-61 -81 0
-61 -83 0
-61 -84 0
-62 -78 0
-62 -79 0
-62 -80 0
-62 -81 0
-62 -82 0
-62 -84 0
-63 -78 0
-63 -79 0
-63 -80 0
-63 -81 0
-63 -82 0
-63 -83 0
-57 -86 0
-57 -87 0
-57 -88 0
-57 -89 0
-57 -90 0
-57 -91 0
-58 -85 0
-58 -87 0
-58 -88 0
-58 -89 0
-58 -90 0
-58 -91 0
-59 -85 0
-59 -86 0
-59 -88 0
-59 -89 0
-59 -90 0
-59 -91 0
-60 -85 0
-60 -86 0
-60 -87 0
-60 -89 0
-60 -90 0
-60 -91 0
-61 -85 0
-61 -86 0
-61 -87 0
-61 -88 0
-61 -90 0
-61 -91 0
-62 -85 0
-62 -86 0
-62 -87 0
-62 -88 0
-62 -89 0
-62 -91 0
-63 -85 0
-63 -86 0
-63 -87 0
-63 -88 0
-63 -89 0
-63 -90 0
-57 -100 0
-57 -101 0
-57 -102 0
-57 -103 0
-57 -104 0
-57 -105 0
-58 -99 0
-58 -101 0
-58 -102 0
-58 -103 0
-58 -104 0
-58 -105 0
-59 -99 0
-59 -100 0
-59 -102 0
-59 -103 0
-59 -104 0
-59 -105 0
-60 -99 0
-60 -100 0
-60 -101 0
-60 -103 0
-60 -104 0
-60 -105 0
-61 -99 0
-61 -100 0
-61 -101 0
-61 -102 0
-61 -104 0
-61 -105 0
-62 -99 0
-62 -100 0
-62 -101 0
-62 -102 0
-62 -103 0
-62 -105 0
-63 -99 0
-63 -100 0
-63 -101 0
-63 -102 0
-63 -103 0
-63 -104 0
-57 -107 0
-57 -108 0
-57 -109 0
-57 -110 0
-57 -111 0
-57 -112 0
-58 -106 0
-58 -108 0
-58 -109 0
-58 -110 0
-58 -111 0
-58 -112 0
-59 -106 0
-59 -107 0
-59 -109 0
-59 -110 0
-59 -111 0
-59 -112 0
-60 -106 0
-60 -107 0
-60 -108 0
-60 -110 0
-60 -111 0
-60 -112 0
-61 -106 0
-61 -107 0
-61 -108 0
-61 -109 0
-61 -111 0
-61 -112 0
-62 -106 0
-62 -107 0
-62 -108 0
-62 -109 0
-62 -110 0
-62 -112 0
-63 -106 0
-63 -107 0
-63 -108 0
-63 -109 0
-63 -110 0
-63 -111 0
-64 -86 0
-64 -87 0
-64 -88 0
-64 -89 0
-64 -90 0
-64 -91 0
-65 -85 0
-65 -87 0
-65 -88 0
-65 -89 0
-65 -90 0
-65 -91 0
-66 -85 0
-66 -86 0
-66 -88 0
-66 -89 0
-66 -90 0
-66 -91 0
-67 -85 0
-67 -86 0
-67 -87 0
-67 -89 0
-67 -90 0
-67 -91 0
-68 -85 0
-68 -86 0
-68 -87 0
-68 -88 0
-68 -90 0
-68 -91 0
-69 -85 0
-69 -86 0
-69 -87 0
-69 -88 0
-69 -89 0
-69 -91 0
-70 -85 0
-70 -86 0
-70 -87 0
-70 -88 0
-70 -89 0
-70 -90 0
-64 -93 0
-64 -94 0
-64 -95 0
-64 -96 0
-64 -97 0
-64 -98 0
-65 -92 0
-65 -94 0
-65 -95 0
-65 -96 0
-65 -97 0
-65 -98 0
-66 -92 0
-66 -93 0
-66 -95 0
-66 -96 0
-66 -97 0
-66 -98 0
-67 -92 0
-67 -93 0
-67 -94 0
-67 -96 0
-67 -97 0
-67 -98 0
-68 -92 0
-68 -93 0
-68 -94 0
-68 -95 0
-68 -97 0
-68 -98 0
-69 -92 0
-69 -93 0
-69 -94 0
-69 -95 0
-69 -96 0
-69 -98 0
-70 -92 0
-70 -93 0
-70 -94 0
-70 -95 0
-70 -96 0
-70 -97 0
-71 -86 0
-71 -87 0
-71 -88 0
-71 -89 0
-71 -90 0
-71 -91 0
-72 -85 0
-72 -87 0
-72 -88 0
-72 -89 0
-72 -90 0
-72 -91 0
-73 -85 0
-73 -86 0
-73 -88 0
-73 -89 0
-73 -90 0
-73 -91 0
-74 -85 0
-74 -86 0
-74 -87 0
-74 -89 0
-74 -90 0
-74 -91 0
-75 -85 0
-75 -86 0
-75 -87 0
-75 -88 0
-75 -90 0
-75 -91 0
-76 -85 0
-76 -86 0
-76 -87 0
-76 -88 0
-76 -89 0
-76 -91 0
-77 -85 0
-77 -86 0
-77 -87 0
-77 -88 0
-77 -89 0
-77 -90 0
-71 -93 0
-71 -94 0
-71 -95 0
-71 -96 0
-71 -97 0
-71 -98 0
-72 -92 0
-72 -94 0
-72 -95 0
-72 -96 0
-72 -97 0
-72 -98 0
-73 -92 0
-73 -93 0
-73 -95 0
-73 -96 0
-73 -97 0
-73 -98 0
-74 -92 0
-74 -93 0
-74 -94 0
-74 -96 0
-74 -97 0
-74 -98 0
-75 -92 0
-75 -93 0
-75 -94 0
-75 -95 0
-75 -97 0
-75 -98 0
-76 -92 0
-76 -93 0
-76 -94 0
-76 -95 0
-76 -96 0
-76 -98 0
-77 -92 0
-77 -93 0
-77 -94 0
-77 -95 0
-77 -96 0
-77 -97 0
-78 -86 0
-78 -87 0
-78 -88 0
-78 -89 0
-78 -90 0
-78 -91 0
-79 -85 0
-79 -87 0
-79 -88 0
-79 -89 0
-79 -90 0
-79 -91 0
-80 -85 0
-80 -86 0
-80 -88 0
-80 -89 0
-80 -90 0
-80 -91 0
-81 -85 0
-81 -86 0
-81 -87 0
-81 -89 0
-81 -90 0
-81 -91 0
-82 -85 0
-82 -86 0
-82 -87 0
-82 -88 0
-82 -90 0
-82 -91 0
-83 -85 0
-83 -86 0
-83 -87 0
-83 -88 0
-83 -89 0
-83 -91 0
-84 -85 0
-84 -86 0
-84 -87 0
-84 -88 0
-84 -89 0
-84 -90 0
-78 -100 0
-78 -101 0
-78 -102 0
-78 -103 0
-78 -104 0
-78 -105 0
-79 -99 0
-79 -101 0
-79 -102 0
-79 -103 0
-79 -104 0
-79 -105 0
-80 -99 0
-80 -100 0
-80 -102 0
-80 -103 0
-80 -104 0
-80 -105 0
-81 -99 0
-81 -100 0
-81 -101 0
-81 -103 0
-81 -104 0
-81 -105 0
-82 -99 0
-82 -100 0
-82 -101 0
-82 -102 0
-82 -104 0
-82 -105 0
-83 -99 0
-83 -100 0
-83 -101 0
-83 -102 0
-83 -103 0
-83 -105 0
-84 -99 0
-84 -100 0
-84 -101 0
-84 -102 0
-84 -103 0
-84 -104 0
-85 -93 0
-85 -94 0
-85 -95 0
-85 -96 0
-85 -97 0
-85 -98 0
-86 -92 0
-86 -94 0
-86 -95 0
-86 -96 0
-86 -97 0
-86 -98 0
-87 -92 0
-87 -93 0
-87 -95 0
-87 -96 0
-87 -97 0
-87 -98 0
-88 -92 0
-88 -93 0
-88 -94 0
-88 -96 0
-88 -97 0
-88 -98 0
-89 -92 0
-89 -93 0
-89 -94 0
-89 -95 0
-89 -97 0
-89 -98 0
-90 -92 0
-90 -93 0
-90 -94 0
-90 -95 0
-90 -96 0
-90 -98 0
-91 -92 0
-91 -93 0
-91 -94 0
-91 -95 0
-91 -96 0
-91 -97 0
-85 -100 0
-85 -101 0
-85 -102 0
-85 -103 0
-85 -104 0
-85 -105 0
-86 -99 0
-86 -101 0
-86 -102 0
-86 -103 0
-86 -104 0
-86 -105 0
-87 -99 0
-87 -100 0
-87 -102 0
-87 -103 0
-87 -104 0
-87 -105 0
-88 -99 0
-88 -100 0
-88 -101 0
-88 -103 0
-88 -104 0
-88 -105 0
-89 -99 0
-89 -100 0
-89 -101 0
-89 -102 0
-89 -104 0
-89 -105 0
-90 -99 0
-90 -100 0
-90 -101 0
-90 -102 0
-90 -103 0
-90 -105 0
-91 -99 0
-91 -100 0
-91 -101 0
-91 -102 0
-91 -103 0
-91 -104 0
-85 -107 0
-85 -108 0
-85 -109 0
-85 -110 0
-85 -111 0
-85 -112 0
-86 -106 0
-86 -108 0
-86 -109 0
-86 -110 0
-86 -111 0
-86 -112 0
-87 -106 0
-87 -107 0
-87 -109 0
-87 -110 0
-87 -111 0
-87 -112 0
-88 -106 0
-88 -107 0
-88 -108 0
-88 -110 0
-88 -111 0
-88 -112 0
-89 -106 0
-89 -107 0
-89 -108 0
-89 -109 0
-89 -111 0
-89 -112 0
-90 -106 0
-90 -107 0
-90 -108 0
-90 -109 0
-90 -110 0
-90 -112 0
-91 -106 0
-91 -107 0
-91 -108 0
-91 -109 0
-91 -110 0
-91 -111 0
1 8 15 22 29 36 43 50 57 64 71 78 85 92 99 106 0 
2 9 16 23 30 37 44 51 58 65 72 79 86 93 100 107 0 
3 10 17 24 31 38 45 52 59 66 73 80 87 94 101 108 0 
4 11 18 25 32 39 46 53 60 67 74 81 88 95 102 109 0 
5 12 19 26 33 40 47 54 61 68 75 82 89 96 103 110 0 
6 13 20 27 34 41 48 55 62 69 76 83 90 97 104 111 0 
7 14 21 28 35 42 49 56 63 70 77 84 91 98 105 112 0 
-2 -1 0
-3 -1 0
-4 -1 0
-5 -1 0
-6 -1 0
-7 -1 0
-3 -2 0
-4 -2 0
-5 -2 0
-6 -2 0
-7 -2 0
-4 -3 0
-5 -3 0
-6 -3 0
-7 -3 0
-5 -4 0
-6 -4 0
-7 -4 0
-6 -5 0
-7 -5 0
-7 -6 0
-9 -8 0
-10 -8 0
-11 -8 0
-12 -8 0
-13 -8 0
-14 -8 0
-10 -9 0
-11 -9 0
-12 -9 0
-13 -9 0
-14 -9 0
-11 -10 0
-12 -10 0
-13 -10 0
-14 -10 0
-12 -11 0
-13 -11 0
-14 -11 0
-13 -12 0
-14 -12 0
-14 -13 0
-16 -15 0
-17 -15 0
-18 -15 0
-19 -15 0
-20 -15 0
-21 -15 0
-17 -16 0
-18 -16 0
-19 -16 0
-20 -16 0
-21 -16 0
-18 -17 0
-19 -17 0
-20 -17 0
-21 -17 0
-19 -18 0
-20 -18 0
-21 -18 0
-20 -19 0
-21 -19 0
-21 -20 0
-23 -22 0
-24 -22 0
-25 -22 0
-26 -22 0
-27 -22 0
-28 -22 0
-24 -23 0
-25 -23 0
-26 -23 0
-27 -23 0
-28 -23 0
-25 -24 0
-26 -24 0
-27 -24 0
-28 -24 0
-26 -25 0
-27 -25 0
-28 -25 0
-27 -26 0
-28 -26 0
-28 -27 0
-30 -29 0
-31 -29 0
-32 -29 0
-33 -29 0
-34 -29 0
-35 -29 0
-31 -30 0
-32 -30 0
-33 -30 0
-34 -30 0
-35 -30 0
-32 -31 0
-33 -31 0
-34 -31 0
-35 -31 0
-33 -32 0
-34 -32 0
-35 -32 0
-34 -33 0
-35 -33 0
-35 -34 0
-37 -36 0
-38 -36 0
-39 -36 0
-40 -36 0
-41 -36 0
-42 -36 0
-38 -37 0
-39 -37 0
-40 -37 0
-41 -37 0
-42 -37 0
-39 -38 0
-40 -38 0
-41 -38 0
-42 -38 0
-40 -39 0
-41 -39 0
-42 -39 0
-41 -40 0
-42 -40 0
-42 -41 0
-44 -43 0
-45 -43 0
-46 -43 0
-47 -43 0
-48 -43 0
-49 -43 0
-45 -44 0
-46 -44 0
-47 -44 0
-48 -44 0
-49 -44 0
-46 -45 0
-47 -45 0
-48 -45 0
-49 -45 0
-47 -46 0
-48 -46 0
-49 -46 0
-48 -47 0
-49 -47 0
-49 -48 0
-51 -50 0
-52 -50 0
-53 -50 0
-54 -50 0
-55 -50 0
-56 -50 0
-52 -51 0
-53 -51 0
-54 -51 0
-55 -51 0
-56 -51 0
-53 -52 0
-54 -52 0
-55 -52 0
-56 -52 0
-54 -53 0
-55 -53 0
-56 -53 0
-55 -54 0
-56 -54 0
-56 -55 0
-58 -57 0
-59 -57 0
-60 -57 0
-61 -57 0
-62 -57 0
-63 -57 0
-59 -58 0
-60 -58 0
-61 -58 0
-62 -58 0
-63 -58 0
-60 -59 0
-61 -59 0
-62 -59 0
-63 -59 0
-61 -60 0
-62 -60 0
-63 -60 0
-62 -61 0
-63 -61 0
-63 -62 0
-65 -64 0
-66 -64 0
-67 -64 0
-68 -64 0
-69 -64 0
-70 -64 0
-66 -65 0
-67 -65 0
-68 -65 0
-69 -65 0
-70 -65 0
-67 -66 0
-68 -66 0
-69 -66 0
-70 -66 0
-68 -67 0
-69 -67 0
-70 -67 0
-69 -68 0
-70 -68 0
-70 -69 0
-72 -71 0
-73 -71 0
-74 -71 0
-75 -71 0
-76 -71 0
-77 -71 0
-73 -72 0
-74 -72 0
-75 -72 0
-76 -72 0
-77 -72 0
-74 -73 0
-75 -73 0
-76 -73 0
-77 -73 0
-75 -74 0
-76 -74 0
-77 -74 0
-76 -75 0
-77 -75 0
-77 -76 0
-79 -78 0
-80 -78 0
-81 -78 0
-82 -78 0
-83 -78 0
-84 -78 0
-80 -79 0
-81 -79 0
-82 -79 0
-83 -79 0
-84 -79 0
-81 -80 0
-82 -80 0
-83 -80 0
-84 -80 0
-82 -81 0
-83 -81 0
-84 -81 0
-83 -82 0
-84 -82 0
-84 -83 0
-86 -85 0
-87 -85 0
-88 -85 0
-89 -85 0
-90 -85 0
-91 -85 0
-87 -86 0
-88 -86 0
-89 -86 0
-90 -86 0
-91 -86 0
-88 -87 0
-89 -87 0
-90 -87 0
-91 -87 0
-89 -88 0
-90 -88 0
-91 -88 0
-90 -89 0
-91 -89 0
-91 -90 0
-93 -92 0
-94 -92 0
-95 -92 0
-96 -92 0
-97 -92 0
-98 -92 0
-94 -93 0
-95 -93 0
-96 -93 0
-97 -93 0
-98 -93 0
-95 -94 0
-96 -94 0
-97 -94 0
-98 -94 0
-96 -95 0
-97 -95 0
-98 -95 0
-97 -96 0
-98 -96 0
-98 -97 0
-100 -99 0
-101 -99 0
-102 -99 0
-103 -99 0
-104 -99 0
-105 -99 0
-101 -100 0
-102 -100 0
-103 -100 0
-104 -100 0
-105 -100 0
-102 -101 0
-103 -101 0
-104 -101 0
-105 -101 0
-103 -102 0
-104 -102 0
-105 -102 0
-104 -103 0
-105 -103 0
-105 -104 0
-107 -106 0
-108 -106 0
-109 -106 0
-110 -106 0
-111 -106 0
-112 -106 0
-108 -107 0
-109 -107 0
-110 -107 0
-111 -107 0
-112 -107 0
-109 -108 0
-110 -108 0
-111 -108 0
-112 -108 0
-110 -109 0
-111 -109 0
-112 -109 0
-111 -110 0
-112 -110 0
-112 -111 0
-1 -8 0
-2 -9 0
-3 -10 0
-4 -11 0
-5 -12 0
-6 -13 0
-7 -14 0
-1 -15 0
-2 -16 0
-3 -17 0
-4 -18 0
-5 -19 0
-6 -20 0
-7 -21 0
-1 -22 0
-2 -23 0
-3 -24 0
-4 -25 0
-5 -26 0
-6 -27 0
-7 -28 0
-1 -29 0
-2 -30 0
-3 -31 0
-4 -32 0
-5 -33 0
-6 -34 0
-7 -35 0
-1 -36 0
-2 -37 0
-3 -38 0
-4 -39 0
-5 -40 0
-6 -41 0
-7 -42 0
-1 -43 0
-2 -44 0
-3 -45 0
-4 -46 0
-5 -47 0
-6 -48 0
-7 -49 0
-1 -50 0
-2 -51 0
-3 -52 0
-4 -53 0
-5 -54 0
-6 -55 0
-7 -56 0
-1 -57 0
-2 -58 0
-3 -59 0
-4 -60 0
-5 -61 0
-6 -62 0
-7 -63 0
-1 -64 0
-2 -65 0
-3 -66 0
-4 -67 0
-5 -68 0
-6 -69 0
-7 -70 0
-1 -71 0
-2 -72 0
-3 -73 0
-4 -74 0
-5 -75 0
-6 -76 0
-7 -77 0
-1 -78 0
-2 -79 0
-3 -80 0
-4 -81 0
-5 -82 0
-6 -83 0
-7 -84 0
-1 -85 0
-2 -86 0
-3 -87 0
-4 -88 0
-5 -89 0
-6 -90 0
-7 -91 0
-1 -92 0
-2 -93 0
-3 -94 0
-4 -95 0
-5 -96 0
-6 -97 0
-7 -98 0
-1 -99 0
-2 -100 0
-3 -101 0
-4 -102 0
-5 -103 0
-6 -104 0
-7 -105 0
-1 -106 0
-2 -107 0
-3 -108 0
-4 -109 0
-5 -110 0
-6 -111 0
-7 -112 0
-8 -15 0
-9 -16 0
-10 -17 0
-11 -18 0
-12 -19 0
-13 -20 0
-14 -21 0
-8 -22 0
-9 -23 0
-10 -24 0
-11 -25 0
-12 -26 0
-13 -27 0
-14 -28 0
-8 -29 0
-9 -30 0
-10 -31 0
-11 -32 0
-12 -33 0
-13 -34 0
-14 -35 0
-8 -36 0
-9 -37 0
-10 -38 0
-11 -39 0
-12 -40 0
-13 -41 0
-14 -42 0
-8 -43 0
-9 -44 0
-10 -45 0
-11 -46 0
-12 -47 0
-13 -48 0
-14 -49 0
-8 -50 0
-9 -51 0
-10 -52 0
-11 -53 0
-12 -54 0
-13 -55 0
-14 -56 0
-8 -57 0
-9 -58 0
-10 -59 0
-11 -60 0
-12 -61 0
-13 -62 0
-14 -63 0
-8 -64 0
-9 -65 0
-10 -66 0
-11 -67 0
-12 -68 0
-13 -69 0
-14 -70 0
-8 -71 0
-9 -72 0
-10 -73 0
-11 -74 0
-12 -75 0
-13 -76 0
-14 -77 0
-8 -78 0
-9 -79 0
-10 -80 0
-11 -81 0
-12 -82 0
-13 -83 0
-14 -84 0
-8 -85 0
-9 -86 0
-10 -87 0
-11 -88 0
-12 -89 0
-13 -90 0
-14 -91 0
-8 -92 0
-9 -93 0
-10 -94 0
-11 -95 0
-12 -96 0
-13 -97 0
-14 -98 0
-8 -99 0
-9 -100 0
-10 -101 0
-11 -102 0
-12 -103 0
-13 -104 0
-14 -105 0
-8 -106 0
-9 -107 0
-10 -108 0
-11 -109 0
-12 -110 0
-13 -111 0
-14 -112 0
-15 -22 0
-16 -23 0
-17 -24 0
-18 -25 0
-19 -26 0
-20 -27 0
-21 -28 0
-15 -29 0
-16 -30 0
-17 -31 0
-18 -32 0
-19 -33 0
-20 -34 0
-21 -35 0
-15 -36 0
-16 -37 0
-17 -38 0
-18 -39 0
-19 -40 0
-20 -41 0
-21 -42 0
-15 -43 0
-16 -44 0
-17 -45 0
-18 -46 0
-19 -47 0
-20 -48 0
-21 -49 0
-15 -50 0
-16 -51 0
-17 -52 0
-18 -53 0
-19 -54 0
-20 -55 0
-21 -56 0
-15 -57 0
-16 -58 0
-17 -59 0
-18 -60 0
-19 -61 0
-20 -62 0
-21 -63 0
-15 -64 0
-16 -65 0
-17 -66 0
-18 -67 0
-19 -68 0
-20 -69 0
-21 -70 0
-15 -71 0
-16 -72 0
-17 -73 0
-18 -74 0
-19 -75 0
-20 -76 0
-21 -77 0
-15 -78 0
-16 -79 0
-17 -80 0
-18 -81 0
-19 -82 0
-20 -83 0
-21 -84 0
-15 -85 0
-16 -86 0
-17 -87 0
-18 -88 0
-19 -89 0
-20 -90 0
-21 -91 0
-15 -92 0
-16 -93 0
-17 -94 0
-18 -95 0
-19 -96 0
-20 -97 0
-21 -98 0
-15 -99 0
-16 -100 0
-17 -101 0
-18 -102 0
-19 -103 0
-20 -104 0
-21 -105 0
-15 -106 0
-16 -107 0
-17 -108 0
-18 -109 0
-19 -110 0
-20 -111 0
-21 -112 0
-22 -29 0
-23 -30 0
-24 -31 0
-25 -32 0
-26 -33 0
-27 -34 0
-28 -35 0
-22 -36 0
-23 -37 0
-24 -38 0
-25 -39 0
-26 -40 0
-27 -41 0
-28 -42 0
-22 -43 0
-23 -44 0
-24 -45 0
-25 -46 0
-26 -47 0
-27 -48 0
-28 -49 0
-22 -50 0
-23 -51 0
-24 -52 0
-25 -53 0
-26 -54 0
-27 -55 0
-28 -56 0
-22 -57 0
-23 -58 0
-24 -59 0
-25 -60 0
-26 -61 0
-27 -62 0
-28 -63 0
-22 -64 0
-23 -65 0
-24 -66 0
-25 -67 0
-26 -68 0
-27 -69 0
-28 -70 0
-22 -71 0
-23 -72 0
-24 -73 0
-25 -74 0
-26 -75 0
-27 -76 0
-28 -77 0
-22 -78 0
-23 -79 0
-24 -80 0
-25 -81 0
-26 -82 0
-27 -83 0
-28 -84 0
-22 -85 0
-23 -86 0
-24 -87 0
-25 -88 0
-26 -89 0
-27 -90 0
-28 -91 0
-22 -92 0
-23 -93 0
-24 -94 0
-25 -95 0
-26 -96 0
-27 -97 0
-28 -98 0
-22 -99 0
-23 -100 0
-24 -101 0
-25 -102 0
-26 -103 0
-27 -104 0
-28 -105 0
-22 -106 0
-23 -107 0
-24 -108 0
-25 -109 0
-26 -110 0
-27 -111 0
-28 -112 0
-29 -36 0
-30 -37 0
-31 -38 0
-32 -39 0
-33 -40 0
-34 -41 0
-35 -42 0
-29 -43 0
-30 -44 0
-31 -45 0
-32 -46 0
-33 -47 0
-34 -48 0
-35 -49 0
-29 -50 0
-30 -51 0
-31 -52 0
-32 -53 0
-33 -54 0
-34 -55 0
-35 -56 0
-29 -57 0
-30 -58 0
-31 -59 0
-32 -60 0
-33 -61 0
-34 -62 0
-35 -63 0
-29 -64 0
-30 -65 0
-31 -66 0
-32 -67 0
-33 -68 0
-34 -69 0
-35 -70 0
-29 -71 0
-30 -72 0
-31 -73 0
-32 -74 0
-33 -75 0
-34 -76 0
-35 -77 0
-29 -78 0
-30 -79 0
-31 -80 0
-32 -81 0
-33 -82 0
-34 -83 0
-35 -84 0
-29 -85 0
-30 -86 0
-31 -87 0
-32 -88 0
-33 -89 0
-34 -90 0
-35 -91 0
-29 -92 0
-30 -93 0
-31 -94 0
-32 -95 0
-33 -96 0
-34 -97 0
-35 -98 0
-29 -99 0
-30 -100 0
-31 -101 0
-32 -102 0
-33 -103 0
-34 -104 0
-35 -105 0
-29 -106 0
-30 -107 0
-31 -108 0
-32 -109 0
-33 -110 0
-34 -111 0
-35 -112 0
-36 -43 0
-37 -44 0
-38 -45 0
-39 -46 0
-40 -47 0
-41 -48 0
-42 -49 0
-36 -50 0
-37 -51 0
-38 -52 0
-39 -53 0
-40 -54 0
-41 -55 0
-42 -56 0
-36 -57 0
-37 -58 0
-38 -59 0
-39 -60 0
-40 -61 0
-41 -62 0
-42 -63 0
-36 -64 0
-37 -65 0
-38 -66 0
-39 -67 0
-40 -68 0
-41 -69 0
-42 -70 0
-36 -71 0
-37 -72 0
-38 -73 0
-39 -74 0
-40 -75 0
-41 -76 0
-42 -77 0
-36 -78 0
-37 -79 0
-38 -80 0
-39 -81 0
-40 -82 0
-41 -83 0
-42 -84 0
-36 -85 0
-37 -86 0
-38 -87 0
-39 -88 0
-40 -89 0
-41 -90 0
-42 -91 0
-36 -92 0
-37 -93 0
-38 -94 0
-39 -95 0
-40 -96 0
-41 -97 0
-42 -98 0
-36 -99 0
-37 -100 0
-38 -101 0
-39 -102 0
-40 -103 0
-41 -104 0
-42 -105 0
-36 -106 0
-37 -107 0
-38 -108 0
-39 -109 0
-40 -110 0
-41 -111 0
-42 -112 0
-43 -50 0
-44 -51 0
-45 -52 0
-46 -53 0
-47 -54 0
-48 -55 0
-49 -56 0
-43 -57 0
-44 -58 0
-45 -59 0
-46 -60 0
-47 -61 0
-48 -62 0
-49 -63 0
-43 -64 0
-44 -65 0
-45 -66 0
-46 -67 0
-47 -68 0
-48 -69 0
-49 -70 0
-43 -71 0
-44 -72 0
-45 -73 0
-46 -74 0
-47 -75 0
-48 -76 0
-49 -77 0
-43 -78 0
-44 -79 0
-45 -80 0
-46 -81 0
-47 -82 0
-48 -83 0
-49 -84 0
-43 -85 0
-44 -86 0
-45 -87 0
-46 -88 0
-47 -89 0
-48 -90 0
-49 -91 0
-43 -92 0
-44 -93 0
-45 -94 0
-46 -95 0
-47 -96 0
-48 -97 0
-49 -98 0
-43 -99 0
-44 -100 0
-45 -101 0
-46 -102 0
-47 -103 0
-48 -104 0
-49 -105 0
-43 -106 0
-44 -107 0
-45 -108 0
-46 -109 0
-47 -110 0
-48 -111 0
-49 -112 0
-50 -57 0
-51 -58 0
-52 -59 0
-53 -60 0
-54 -61 0
-55 -62 0
-56 -63 0
-50 -64 0
-51 -65 0
-52 -66 0
-53 -67 0
-54 -68 0
-55 -69 0
-56 -70 0
-50 -71 0
-51 -72 0
-52 -73 0
-53 -74 0
-54 -75 0
-55 -76 0
-56 -77 0
-50 -78 0
-51 -79 0
-52 -80 0
-53 -81 0
-54 -82 0
-55 -83 0
-56 -84 0
-50 -85 0
-51 -86 0
-52 -87 0
-53 -88 0
-54 -89 0
-55 -90 0
-56 -91 0
-50 -92 0
-51 -93 0
-52 -94 0
-53 -95 0
-54 -96 0
-55 -97 0
-56 -98 0
-50 -99 0
-51 -100 0
-52 -101 0
-53 -102 0
-54 -103 0
-55 -104 0
-56 -105 0
-50 -106 0
-51 -107 0
-52 -108 0
-53 -109 0
-54 -110 0
-55 -111 0
-56 -112 0
-57 -64 0
-58 -65 0
-59 -66 0
-60 -67 0
-61 -68 0
-62 -69 0
-63 -70 0
-57 -71 0
-58 -72 0
-59 -73 0
-60 -74 0
-61 -75 0
-62 -76 0
-63 -77 0
-57 -78 0
-58 -79 0
-59 -80 0
-60 -81 0
-61 -82 0
-62 -83 0
-63 -84 0
-57 -85 0
-58 -86 0
-59 -87 0
-60 -88 0
-61 -89 0
-62 -90 0
-63 -91 0
-57 -92 0
-58 -93 0
-59 -94 0
-60 -95 0
-61 -96 0
-62 -97 0
-63 -98 0
-57 -99 0
-58 -100 0
-59 -101 0
-60 -102 0
-61 -103 0
-62 -104 0
-63 -105 0
-57 -106 0
-58 -107 0
-59 -108 0
-60 -109 0
-61 -110 0
-62 -111 0
-63 -112 0
-64 -71 0
-65 -72 0
-66 -73 0
-67 -74 0
-68 -75 0
-69 -76 0
-70 -77 0
-64 -78 0
-65 -79 0
-66 -80 0
-67 -81 0
-68 -82 0
-69 -83 0
-70 -84 0
-64 -85 0
-65 -86 0
-66 -87 0
-67 -88 0
-68 -89 0
-69 -90 0
-70 -91 0
-64 -92 0
-65 -93 0
-66 -94 0
-67 -95 0
-68 -96 0
-69 -97 0
-70 -98 0
-64 -99 0
-65 -100 0
-66 -101 0
-67 -102 0
-68 -103 0
-69 -104 0
-70 -105 0
-64 -106 0
-65 -107 0
-66 -108 0
-67 -109 0
-68 -110 0
-69 -111 0
-70 -112 0
-71 -78 0
-72 -79 0
-73 -80 0
-74 -81 0
-75 -82 0
-76 -83 0
-77 -84 0
-71 -85 0
-72 -86 0
-73 -87 0
-74 -88 0
-75 -89 0
-76 -90 0
-77 -91 0
-71 -92 0
-72 -93 0
-73 -94 0
-74 -95 0
-75 -96 0
-76 -97 0
-77 -98 0
-71 -99 0
-72 -100 0
-73 -101 0
-74 -102 0
-75 -103 0
-76 -104 0
-77 -105 0
-71 -106 0
-72 -107 0
-73 -108 0
-74 -109 0
-75 -110 0
-76 -111 0
-77 -112 0
-78 -85 0
-79 -86 0
-80 -87 0
-81 -88 0
-82 -89 0
-83 -90 0
-84 -91 0
-78 -92 0
-79 -93 0
-80 -94 0
-81 -95 0
-82 -96 0
-83 -97 0
-84 -98 0
-78 -99 0
-79 -100 0
-80 -101 0
-81 -102 0
-82 -103 0
-83 -104 0
-84 -105 0
-78 -106 0
-79 -107 0
-80 -108 0
-81 -109 0
-82 -110 0
-83 -111 0
-84 -112 0
-85 -92 0
-86 -93 0
-87 -94 0
-88 -95 0
-89 -96 0
-90 -97 0
-91 -98 0
-85 -99 0
-86 -100 0
-87 -101 0
-88 -102 0
-89 -103 0
-90 -104 0
-91 -105 0
-85 -106 0
-86 -107 0
-87 -108 0
-88 -109 0
-89 -110 0
-90 -111 0
-91 -112 0
-92 -99 0
-93 -100 0
-94 -101 0
-95 -102 0
-96 -103 0
-97 -104 0
-98 -105 0
-92 -106 0
-93 -107 0
-94 -108 0
-95 -109 0
-96 -110 0
-97 -111 0
-98 -112 0
-99 -106 0
-100 -107 0
-101 -108 0
-102 -109 0
-103 -110 0
-104 -111 0
-105 -112 0
